(set-logic QF_UF)
(set-option :produce-models true)
(declare-const A Bool)
(declare-const B Bool)
(declare-const C Bool)
(declare-const D Bool)
(declare-const x1 Bool)
(assert
	(and
		(or (not A) B )
		(or (not B) A )
            	(or (not C) D )
	      	(or A B x1 )
            	(or (not x1) C D)
	) 
)
(check-sat)
(get-model)
(exit)
